instances/shortest_path/discrete_knapsack_uncertainty/nohadani_4_6.lp
\ Model nohadani_4_6
\ LP format - for model browsing. Use MPS format to capture full model detail.
\ Signature: 0x26b3cf7f3313a25f
Minimize
  66.94027188471824 y[0,2] + 30.14962686336267 y[0,3]
   + 38.60051813123756 y[1,2] + 67.94115100585212 y[1,3]
   + 66.94027188471824 y[2,0] + 38.60051813123756 y[2,1]
   + 37.33630940518894 y[2,3] + 30.14962686336267 y[3,0]
   + 67.94115100585212 y[3,1] + 37.33630940518894 y[3,2] + x[0,2] + x[0,3]
   + x[1,2] + x[1,3] + x[2,0] + x[2,1] + x[2,3] + x[3,0] + x[3,1] + x[3,2]
   + 6.694027188471825 r[0,2] + 3.014962686336267 r[0,3]
   + 3.860051813123757 r[1,2] + 6.794115100585213 r[1,3]
   + 6.694027188471825 r[2,0] + 3.860051813123757 r[2,1]
   + 3.733630940518895 r[2,3] + 3.014962686336267 r[3,0]
   + 6.794115100585213 r[3,1] + 3.733630940518895 r[3,2]
Subject To
 flow_cons_inner_nodes[2]: y[0,2] + y[1,2] - y[2,0] - y[2,1] - y[2,3]
   + y[3,2] = 0
 flow_cons_inner_nodes[3]: y[0,3] + y[1,3] + y[2,3] - y[3,0] - y[3,1]
   - y[3,2] = 0
 flow_cons_source: y[0,2] + y[0,3] - y[2,0] - y[3,0] = 1
 flow_cons_target: - y[1,2] - y[1,3] + y[2,1] + y[3,1] = 1
 primal_lower: 5.521326949523979 x[0,2] + 4.529682310944122 x[0,3]
   + 2.654379091652685 x[1,2] + 5.818808540294103 x[1,3]
   + 2.434208155735173 x[2,0] + 4.655822097315305 x[2,1]
   + 3.321922704683563 x[2,3] + 3.286579482801805 x[3,0]
   + 6.538773052544586 x[3,1] + 5.772885993243164 x[3,2] + 35 u[0,2]
   + 36 u[0,3] + 82 u[1,2] + 27 u[1,3] + 64 u[2,0] + 21 u[2,1] + 33 u[2,3]
   + 39 u[3,0] + 89 u[3,1] + 2 u[3,2] <= 89
 mccormick1[0,2]: - u[0,2] + r[0,2] <= 0
 mccormick1[0,3]: - u[0,3] + r[0,3] <= 0
 mccormick1[1,2]: - u[1,2] + r[1,2] <= 0
 mccormick1[1,3]: - u[1,3] + r[1,3] <= 0
 mccormick1[2,0]: - u[2,0] + r[2,0] <= 0
 mccormick1[2,1]: - u[2,1] + r[2,1] <= 0
 mccormick1[2,3]: - u[2,3] + r[2,3] <= 0
 mccormick1[3,0]: - u[3,0] + r[3,0] <= 0
 mccormick1[3,1]: - u[3,1] + r[3,1] <= 0
 mccormick1[3,2]: - u[3,2] + r[3,2] <= 0
 mccormick2[0,2]: - y[0,2] + r[0,2] <= 0
 mccormick2[0,3]: - y[0,3] + r[0,3] <= 0
 mccormick2[1,2]: - y[1,2] + r[1,2] <= 0
 mccormick2[1,3]: - y[1,3] + r[1,3] <= 0
 mccormick2[2,0]: - y[2,0] + r[2,0] <= 0
 mccormick2[2,1]: - y[2,1] + r[2,1] <= 0
 mccormick2[2,3]: - y[2,3] + r[2,3] <= 0
 mccormick2[3,0]: - y[3,0] + r[3,0] <= 0
 mccormick2[3,1]: - y[3,1] + r[3,1] <= 0
 mccormick2[3,2]: - y[3,2] + r[3,2] <= 0
 mccormick3[0,2]: - y[0,2] - u[0,2] + r[0,2] >= -1
 mccormick3[0,3]: - y[0,3] - u[0,3] + r[0,3] >= -1
 mccormick3[1,2]: - y[1,2] - u[1,2] + r[1,2] >= -1
 mccormick3[1,3]: - y[1,3] - u[1,3] + r[1,3] >= -1
 mccormick3[2,0]: - y[2,0] - u[2,0] + r[2,0] >= -1
 mccormick3[2,1]: - y[2,1] - u[2,1] + r[2,1] >= -1
 mccormick3[2,3]: - y[2,3] - u[2,3] + r[2,3] >= -1
 mccormick3[3,0]: - y[3,0] - u[3,0] + r[3,0] >= -1
 mccormick3[3,1]: - y[3,1] - u[3,1] + r[3,1] >= -1
 mccormick3[3,2]: - y[3,2] - u[3,2] + r[3,2] >= -1
Bounds
Binaries
 y[0,2] y[0,3] y[1,2] y[1,3] y[2,0] y[2,1] y[2,3] y[3,0] y[3,1] y[3,2]
 x[0,2] x[0,3] x[1,2] x[1,3] x[2,0] x[2,1] x[2,3] x[3,0] x[3,1] x[3,2]
 u[0,2] u[0,3] u[1,2] u[1,3] u[2,0] u[2,1] u[2,3] u[3,0] u[3,1] u[3,2]
 r[0,2] r[0,3] r[1,2] r[1,3] r[2,0] r[2,1] r[2,3] r[3,0] r[3,1] r[3,2]
End
