instances/shortest_path/discrete_knapsack_uncertainty/nohadani_4_6.kp
85
89

[5.521326949523979 4.529682310944122 2.6543790916526855 5.8188085402941025 2.4342081557351727 4.655822097315305 3.3219227046835633 3.2865794828018053 6.538773052544586 5.772885993243164]

[35 36 82 27 64 21 33 39 89 2]
